p cnf 279 898
-1 -2 -3 0
-1 -2 -5 0
-1 -2 -7 0
-1 -2 -9 0
-1 -2 -11 0
-1 -2 -13 0
-1 -2 -15 0
-1 -2 -17 0
-1 -2 -19 0
-1 -2 -21 0
-1 -2 -23 0
-1 -2 -25 0
-1 -2 -27 0
-1 -2 -29 0
-1 -2 -31 0
-1 -3 -5 0
-1 -3 -6 0
-1 -3 -9 0
-1 -3 -10 0
-1 -3 -13 0
-1 -3 -14 0
-1 -3 -17 0
-1 -3 -18 0
-1 -3 -21 0
-1 -3 -22 0
-1 -3 -25 0
-1 -3 -26 0
-1 -3 -29 0
-1 -3 -30 0
-1 -4 -5 0
-1 -4 -9 0
-1 -4 -13 0
-1 -4 -17 0
-1 -4 -21 0
-1 -4 -25 0
-1 -4 -29 0
-1 -5 -9 0
-1 -5 -10 0
-1 -5 -11 0
-1 -5 -12 0
-1 -5 -17 0
-1 -5 -18 0
-1 -5 -19 0
-1 -5 -20 0
-1 -5 -25 0
-1 -5 -26 0
-1 -5 -27 0
-1 -5 -28 0
-1 -6 -9 0
-1 -6 -11 0
-1 -6 -17 0
-1 -6 -19 0
-1 -6 -25 0
-1 -6 -27 0
-1 -7 -9 0
-1 -7 -10 0
-1 -7 -17 0
-1 -7 -18 0
-1 -7 -25 0
-1 -7 -26 0
-1 -8 -9 0
-1 -8 -17 0
-1 -8 -25 0
-1 -9 -17 0
-1 -9 -18 0
-1 -9 -19 0
-1 -9 -20 0
-1 -9 -21 0
-1 -9 -22 0
-1 -9 -23 0
-1 -9 -24 0
-1 -10 -17 0
-1 -10 -19 0
-1 -10 -21 0
-1 -10 -23 0
-1 -11 -17 0
-1 -11 -18 0
-1 -11 -21 0
-1 -11 -22 0
-1 -12 -17 0
-1 -12 -21 0
-1 -13 -17 0
-1 -13 -18 0
-1 -13 -19 0
-1 -13 -20 0
-1 -14 -17 0
-1 -14 -19 0
-1 -15 -17 0
-1 -15 -18 0
-1 -16 -17 0
-2 -3 -5 0
-2 -3 -9 0
-2 -3 -13 0
-2 -3 -17 0
-2 -3 -21 0
-2 -3 -25 0
-2 -3 -29 0
-2 -4 -6 0
-2 -4 -10 0
-2 -4 -14 0
-2 -4 -18 0
-2 -4 -22 0
-2 -4 -26 0
-2 -4 -30 0
-2 -5 -9 0
-2 -5 -11 0
-2 -5 -17 0
-2 -5 -19 0
-2 -5 -25 0
-2 -5 -27 0
-2 -6 -10 0
-2 -6 -12 0
-2 -6 -18 0
-2 -6 -20 0
-2 -6 -26 0
-2 -6 -28 0
-2 -7 -9 0
-2 -7 -17 0
-2 -7 -25 0
-2 -8 -10 0
-2 -8 -18 0
-2 -8 -26 0
-2 -9 -17 0
-2 -9 -19 0
-2 -9 -21 0
-2 -9 -23 0
-2 -10 -18 0
-2 -10 -20 0
-2 -10 -22 0
-2 -10 -24 0
-2 -11 -17 0
-2 -11 -21 0
-2 -12 -18 0
-2 -12 -22 0
-2 -13 -17 0
-2 -13 -19 0
-2 -14 -18 0
-2 -14 -20 0
-2 -15 -17 0
-2 -16 -18 0
-3 -4 -7 0
-3 -4 -11 0
-3 -4 -15 0
-3 -4 -19 0
-3 -4 -23 0
-3 -4 -27 0
-3 -4 -31 0
-3 -5 -9 0
-3 -5 -10 0
-3 -5 -17 0
-3 -5 -18 0
-3 -5 -25 0
-3 -5 -26 0
-3 -6 -9 0
-3 -6 -17 0
-3 -6 -25 0
-3 -7 -11 0
-3 -7 -12 0
-3 -7 -19 0
-3 -7 -20 0
-3 -7 -27 0
-3 -7 -28 0
-3 -8 -11 0
-3 -8 -19 0
-3 -8 -27 0
-3 -9 -17 0
-3 -9 -18 0
-3 -9 -21 0
-3 -9 -22 0
-3 -10 -17 0
-3 -10 -21 0
-3 -11 -19 0
-3 -11 -20 0
-3 -11 -23 0
-3 -11 -24 0
-3 -12 -19 0
-3 -12 -23 0
-3 -13 -17 0
-3 -13 -18 0
-3 -14 -17 0
-3 -15 -19 0
-3 -15 -20 0
-3 -16 -19 0
-4 -5 -9 0
-4 -5 -17 0
-4 -5 -25 0
-4 -6 -10 0
-4 -6 -18 0
-4 -6 -26 0
-4 -7 -11 0
-4 -7 -19 0
-4 -7 -27 0
-4 -8 -12 0
-4 -8 -20 0
-4 -8 -28 0
-4 -9 -17 0
-4 -9 -21 0
-4 -10 -18 0
-4 -10 -22 0
-4 -11 -19 0
-4 -11 -23 0
-4 -12 -20 0
-4 -12 -24 0
-4 -13 -17 0
-4 -14 -18 0
-4 -15 -19 0
-4 -16 -20 0
-5 -6 -7 0
-5 -6 -13 0
-5 -6 -15 0
-5 -6 -21 0
-5 -6 -23 0
-5 -6 -29 0
-5 -6 -31 0
-5 -7 -13 0
-5 -7 -14 0
-5 -7 -21 0
-5 -7 -22 0
-5 -7 -29 0
-5 -7 -30 0
-5 -8 -13 0
-5 -8 -21 0
-5 -8 -29 0
-5 -9 -17 0
-5 -9 -18 0
-5 -9 -19 0
-5 -9 -20 0
-5 -10 -17 0
-5 -10 -19 0
-5 -11 -17 0
-5 -11 -18 0
-5 -12 -17 0
-5 -13 -21 0
-5 -13 -22 0
-5 -13 -23 0
-5 -13 -24 0
-5 -14 -21 0
-5 -14 -23 0
-5 -15 -21 0
-5 -15 -22 0
-5 -16 -21 0
-6 -7 -13 0
-6 -7 -21 0
-6 -7 -29 0
-6 -8 -14 0
-6 -8 -22 0
-6 -8 -30 0
-6 -9 -17 0
-6 -9 -19 0
-6 -10 -18 0
-6 -10 -20 0
-6 -11 -17 0
-6 -12 -18 0
-6 -13 -21 0
-6 -13 -23 0
-6 -14 -22 0
-6 -14 -24 0
-6 -15 -21 0
-6 -16 -22 0
-7 -8 -15 0
-7 -8 -23 0
-7 -8 -31 0
-7 -9 -17 0
-7 -9 -18 0
-7 -10 -17 0
-7 -11 -19 0
-7 -11 -20 0
-7 -12 -19 0
-7 -13 -21 0
-7 -13 -22 0
-7 -14 -21 0
-7 -15 -23 0
-7 -15 -24 0
-7 -16 -23 0
-8 -9 -17 0
-8 -10 -18 0
-8 -11 -19 0
-8 -12 -20 0
-8 -13 -21 0
-8 -14 -22 0
-8 -15 -23 0
-8 -16 -24 0
-9 -10 -11 0
-9 -10 -13 0
-9 -10 -15 0
-9 -10 -25 0
-9 -10 -27 0
-9 -10 -29 0
-9 -10 -31 0
-9 -11 -13 0
-9 -11 -14 0
-9 -11 -25 0
-9 -11 -26 0
-9 -11 -29 0
-9 -11 -30 0
-9 -12 -13 0
-9 -12 -25 0
-9 -12 -29 0
-9 -13 -25 0
-9 -13 -26 0
-9 -13 -27 0
-9 -13 -28 0
-9 -14 -25 0
-9 -14 -27 0
-9 -15 -25 0
-9 -15 -26 0
-9 -16 -25 0
-10 -11 -13 0
-10 -11 -25 0
-10 -11 -29 0
-10 -12 -14 0
-10 -12 -26 0
-10 -12 -30 0
-10 -13 -25 0
-10 -13 -27 0
-10 -14 -26 0
-10 -14 -28 0
-10 -15 -25 0
-10 -16 -26 0
-11 -12 -15 0
-11 -12 -27 0
-11 -12 -31 0
-11 -13 -25 0
-11 -13 -26 0
-11 -14 -25 0
-11 -15 -27 0
-11 -15 -28 0
-11 -16 -27 0
-12 -13 -25 0
-12 -14 -26 0
-12 -15 -27 0
-12 -16 -28 0
-13 -14 -15 0
-13 -14 -29 0
-13 -14 -31 0
-13 -15 -29 0
-13 -15 -30 0
-13 -16 -29 0
-14 -15 -29 0
-14 -16 -30 0
-15 -16 -31 0
-17 -18 -19 0
-17 -18 -21 0
-17 -18 -23 0
-17 -18 -25 0
-17 -18 -27 0
-17 -18 -29 0
-17 -18 -31 0
-17 -19 -21 0
-17 -19 -22 0
-17 -19 -25 0
-17 -19 -26 0
-17 -19 -29 0
-17 -19 -30 0
-17 -20 -21 0
-17 -20 -25 0
-17 -20 -29 0
-17 -21 -25 0
-17 -21 -26 0
-17 -21 -27 0
-17 -21 -28 0
-17 -22 -25 0
-17 -22 -27 0
-17 -23 -25 0
-17 -23 -26 0
-17 -24 -25 0
-18 -19 -21 0
-18 -19 -25 0
-18 -19 -29 0
-18 -20 -22 0
-18 -20 -26 0
-18 -20 -30 0
-18 -21 -25 0
-18 -21 -27 0
-18 -22 -26 0
-18 -22 -28 0
-18 -23 -25 0
-18 -24 -26 0
-19 -20 -23 0
-19 -20 -27 0
-19 -20 -31 0
-19 -21 -25 0
-19 -21 -26 0
-19 -22 -25 0
-19 -23 -27 0
-19 -23 -28 0
-19 -24 -27 0
-20 -21 -25 0
-20 -22 -26 0
-20 -23 -27 0
-20 -24 -28 0
-21 -22 -23 0
-21 -22 -29 0
-21 -22 -31 0
-21 -23 -29 0
-21 -23 -30 0
-21 -24 -29 0
-22 -23 -29 0
-22 -24 -30 0
-23 -24 -31 0
-25 -26 -27 0
-25 -26 -29 0
-25 -26 -31 0
-25 -27 -29 0
-25 -27 -30 0
-25 -28 -29 0
-26 -27 -29 0
-26 -28 -30 0
-27 -28 -31 0
-29 -30 -31 0
1 33 0
-33 34 0
2 -33 35 0
-35 36 0
3 -35 37 0
-37 38 0
4 -37 39 0
-39 40 0
5 -39 41 0
-41 42 0
6 -41 43 0
-43 44 0
7 -43 45 0
-45 46 0
8 -45 47 0
-47 48 0
9 -47 49 0
-49 50 0
10 -49 51 0
-51 52 0
11 -51 53 0
-53 54 0
12 -53 55 0
-55 56 0
13 -55 57 0
-57 58 0
14 -57 59 0
-59 60 0
15 -59 61 0
-61 62 0
16 -61 63 0
-63 64 0
17 -63 65 0
-65 66 0
18 -65 67 0
-67 68 0
19 -67 69 0
-69 70 0
20 -69 0
2 34 0
-34 71 0
3 -34 36 0
-36 72 0
4 -36 38 0
-38 73 0
5 -38 40 0
-40 74 0
6 -40 42 0
-42 75 0
7 -42 44 0
-44 76 0
8 -44 46 0
-46 77 0
9 -46 48 0
-48 78 0
10 -48 50 0
-50 79 0
11 -50 52 0
-52 80 0
12 -52 54 0
-54 81 0
13 -54 56 0
-56 82 0
14 -56 58 0
-58 83 0
15 -58 60 0
-60 84 0
16 -60 62 0
-62 85 0
17 -62 64 0
-64 86 0
18 -64 66 0
-66 87 0
19 -66 68 0
-68 88 0
20 -68 70 0
-70 89 0
21 -70 0
3 71 0
-71 90 0
4 -71 72 0
-72 91 0
5 -72 73 0
-73 92 0
6 -73 74 0
-74 93 0
7 -74 75 0
-75 94 0
8 -75 76 0
-76 95 0
9 -76 77 0
-77 96 0
10 -77 78 0
-78 97 0
11 -78 79 0
-79 98 0
12 -79 80 0
-80 99 0
13 -80 81 0
-81 100 0
14 -81 82 0
-82 101 0
15 -82 83 0
-83 102 0
16 -83 84 0
-84 103 0
17 -84 85 0
-85 104 0
18 -85 86 0
-86 105 0
19 -86 87 0
-87 106 0
20 -87 88 0
-88 107 0
21 -88 89 0
-89 108 0
22 -89 0
4 90 0
-90 109 0
5 -90 91 0
-91 110 0
6 -91 92 0
-92 111 0
7 -92 93 0
-93 112 0
8 -93 94 0
-94 113 0
9 -94 95 0
-95 114 0
10 -95 96 0
-96 115 0
11 -96 97 0
-97 116 0
12 -97 98 0
-98 117 0
13 -98 99 0
-99 118 0
14 -99 100 0
-100 119 0
15 -100 101 0
-101 120 0
16 -101 102 0
-102 121 0
17 -102 103 0
-103 122 0
18 -103 104 0
-104 123 0
19 -104 105 0
-105 124 0
20 -105 106 0
-106 125 0
21 -106 107 0
-107 126 0
22 -107 108 0
-108 127 0
23 -108 0
5 109 0
-109 128 0
6 -109 110 0
-110 129 0
7 -110 111 0
-111 130 0
8 -111 112 0
-112 131 0
9 -112 113 0
-113 132 0
10 -113 114 0
-114 133 0
11 -114 115 0
-115 134 0
12 -115 116 0
-116 135 0
13 -116 117 0
-117 136 0
14 -117 118 0
-118 137 0
15 -118 119 0
-119 138 0
16 -119 120 0
-120 139 0
17 -120 121 0
-121 140 0
18 -121 122 0
-122 141 0
19 -122 123 0
-123 142 0
20 -123 124 0
-124 143 0
21 -124 125 0
-125 144 0
22 -125 126 0
-126 145 0
23 -126 127 0
-127 146 0
24 -127 0
6 128 0
-128 147 0
7 -128 129 0
-129 148 0
8 -129 130 0
-130 149 0
9 -130 131 0
-131 150 0
10 -131 132 0
-132 151 0
11 -132 133 0
-133 152 0
12 -133 134 0
-134 153 0
13 -134 135 0
-135 154 0
14 -135 136 0
-136 155 0
15 -136 137 0
-137 156 0
16 -137 138 0
-138 157 0
17 -138 139 0
-139 158 0
18 -139 140 0
-140 159 0
19 -140 141 0
-141 160 0
20 -141 142 0
-142 161 0
21 -142 143 0
-143 162 0
22 -143 144 0
-144 163 0
23 -144 145 0
-145 164 0
24 -145 146 0
-146 165 0
25 -146 0
7 147 0
-147 166 0
8 -147 148 0
-148 167 0
9 -148 149 0
-149 168 0
10 -149 150 0
-150 169 0
11 -150 151 0
-151 170 0
12 -151 152 0
-152 171 0
13 -152 153 0
-153 172 0
14 -153 154 0
-154 173 0
15 -154 155 0
-155 174 0
16 -155 156 0
-156 175 0
17 -156 157 0
-157 176 0
18 -157 158 0
-158 177 0
19 -158 159 0
-159 178 0
20 -159 160 0
-160 179 0
21 -160 161 0
-161 180 0
22 -161 162 0
-162 181 0
23 -162 163 0
-163 182 0
24 -163 164 0
-164 183 0
25 -164 165 0
-165 184 0
26 -165 0
8 166 0
-166 185 0
9 -166 167 0
-167 186 0
10 -167 168 0
-168 187 0
11 -168 169 0
-169 188 0
12 -169 170 0
-170 189 0
13 -170 171 0
-171 190 0
14 -171 172 0
-172 191 0
15 -172 173 0
-173 192 0
16 -173 174 0
-174 193 0
17 -174 175 0
-175 194 0
18 -175 176 0
-176 195 0
19 -176 177 0
-177 196 0
20 -177 178 0
-178 197 0
21 -178 179 0
-179 198 0
22 -179 180 0
-180 199 0
23 -180 181 0
-181 200 0
24 -181 182 0
-182 201 0
25 -182 183 0
-183 202 0
26 -183 184 0
-184 203 0
27 -184 0
9 185 0
-185 204 0
10 -185 186 0
-186 205 0
11 -186 187 0
-187 206 0
12 -187 188 0
-188 207 0
13 -188 189 0
-189 208 0
14 -189 190 0
-190 209 0
15 -190 191 0
-191 210 0
16 -191 192 0
-192 211 0
17 -192 193 0
-193 212 0
18 -193 194 0
-194 213 0
19 -194 195 0
-195 214 0
20 -195 196 0
-196 215 0
21 -196 197 0
-197 216 0
22 -197 198 0
-198 217 0
23 -198 199 0
-199 218 0
24 -199 200 0
-200 219 0
25 -200 201 0
-201 220 0
26 -201 202 0
-202 221 0
27 -202 203 0
-203 222 0
28 -203 0
10 204 0
-204 223 0
11 -204 205 0
-205 224 0
12 -205 206 0
-206 225 0
13 -206 207 0
-207 226 0
14 -207 208 0
-208 227 0
15 -208 209 0
-209 228 0
16 -209 210 0
-210 229 0
17 -210 211 0
-211 230 0
18 -211 212 0
-212 231 0
19 -212 213 0
-213 232 0
20 -213 214 0
-214 233 0
21 -214 215 0
-215 234 0
22 -215 216 0
-216 235 0
23 -216 217 0
-217 236 0
24 -217 218 0
-218 237 0
25 -218 219 0
-219 238 0
26 -219 220 0
-220 239 0
27 -220 221 0
-221 240 0
28 -221 222 0
-222 241 0
29 -222 0
11 223 0
-223 242 0
12 -223 224 0
-224 243 0
13 -224 225 0
-225 244 0
14 -225 226 0
-226 245 0
15 -226 227 0
-227 246 0
16 -227 228 0
-228 247 0
17 -228 229 0
-229 248 0
18 -229 230 0
-230 249 0
19 -230 231 0
-231 250 0
20 -231 232 0
-232 251 0
21 -232 233 0
-233 252 0
22 -233 234 0
-234 253 0
23 -234 235 0
-235 254 0
24 -235 236 0
-236 255 0
25 -236 237 0
-237 256 0
26 -237 238 0
-238 257 0
27 -238 239 0
-239 258 0
28 -239 240 0
-240 259 0
29 -240 241 0
-241 260 0
30 -241 0
12 242 0
-242 261 0
13 -242 243 0
-243 262 0
14 -243 244 0
-244 263 0
15 -244 245 0
-245 264 0
16 -245 246 0
-246 265 0
17 -246 247 0
-247 266 0
18 -247 248 0
-248 267 0
19 -248 249 0
-249 268 0
20 -249 250 0
-250 269 0
21 -250 251 0
-251 270 0
22 -251 252 0
-252 271 0
23 -252 253 0
-253 272 0
24 -253 254 0
-254 273 0
25 -254 255 0
-255 274 0
26 -255 256 0
-256 275 0
27 -256 257 0
-257 276 0
28 -257 258 0
-258 277 0
29 -258 259 0
-259 278 0
30 -259 260 0
-260 279 0
31 -260 0
13 261 0
14 -261 262 0
15 -262 263 0
16 -263 264 0
17 -264 265 0
18 -265 266 0
19 -266 267 0
20 -267 268 0
21 -268 269 0
22 -269 270 0
23 -270 271 0
24 -271 272 0
25 -272 273 0
26 -273 274 0
27 -274 275 0
28 -275 276 0
29 -276 277 0
30 -277 278 0
31 -278 279 0
32 -279 0
